; benchmark generated from python API
(set-info :status unknown)
(declare-fun label_0_0 () Int)
(declare-fun label_0_1 () Int)
(declare-fun label_0_2 () Int)
(declare-fun label_0_3 () Int)
(declare-fun label_0_4 () Int)
(declare-fun label_0_5 () Int)
(declare-fun label_0_6 () Int)
(declare-fun label_0_7 () Int)
(declare-fun label_0_8 () Int)
(declare-fun label_1_0 () Int)
(declare-fun label_1_1 () Int)
(declare-fun label_1_2 () Int)
(declare-fun label_1_3 () Int)
(declare-fun label_1_4 () Int)
(declare-fun label_1_5 () Int)
(declare-fun label_1_6 () Int)
(declare-fun label_1_7 () Int)
(declare-fun label_1_8 () Int)
(declare-fun label_2_0 () Int)
(declare-fun label_2_1 () Int)
(declare-fun label_2_2 () Int)
(declare-fun label_2_3 () Int)
(declare-fun label_2_4 () Int)
(declare-fun label_2_5 () Int)
(declare-fun label_2_6 () Int)
(declare-fun label_2_7 () Int)
(declare-fun label_2_8 () Int)
(declare-fun len_0_0_1 () Int)
(declare-fun len_star_0_0_1 () Int)
(declare-fun q_0_0_1 () Int)
(declare-fun len_0_0_2 () Int)
(declare-fun len_star_0_0_2 () Int)
(declare-fun q_0_0_2 () Int)
(declare-fun len_0_0_3 () Int)
(declare-fun len_star_0_0_3 () Int)
(declare-fun q_0_0_3 () Int)
(declare-fun len_0_0_4 () Int)
(declare-fun len_star_0_0_4 () Int)
(declare-fun q_0_0_4 () Int)
(declare-fun len_0_0_5 () Int)
(declare-fun len_star_0_0_5 () Int)
(declare-fun q_0_0_5 () Int)
(declare-fun len_0_6_7 () Int)
(declare-fun len_star_0_6_7 () Int)
(declare-fun q_0_6_7 () Int)
(declare-fun len_0_7_8 () Int)
(declare-fun len_star_0_7_8 () Int)
(declare-fun q_0_7_8 () Int)
(declare-fun len_1_0_1 () Int)
(declare-fun len_star_1_0_1 () Int)
(declare-fun q_1_0_1 () Int)
(declare-fun len_1_0_2 () Int)
(declare-fun len_star_1_0_2 () Int)
(declare-fun q_1_0_2 () Int)
(declare-fun len_1_0_3 () Int)
(declare-fun len_star_1_0_3 () Int)
(declare-fun q_1_0_3 () Int)
(declare-fun len_1_0_4 () Int)
(declare-fun len_star_1_0_4 () Int)
(declare-fun q_1_0_4 () Int)
(declare-fun len_1_0_5 () Int)
(declare-fun len_star_1_0_5 () Int)
(declare-fun q_1_0_5 () Int)
(declare-fun len_1_6_7 () Int)
(declare-fun len_star_1_6_7 () Int)
(declare-fun q_1_6_7 () Int)
(declare-fun len_1_7_8 () Int)
(declare-fun len_star_1_7_8 () Int)
(declare-fun q_1_7_8 () Int)
(declare-fun len_2_0_1 () Int)
(declare-fun len_star_2_0_1 () Int)
(declare-fun q_2_0_1 () Int)
(declare-fun len_2_0_2 () Int)
(declare-fun len_star_2_0_2 () Int)
(declare-fun q_2_0_2 () Int)
(declare-fun len_2_0_3 () Int)
(declare-fun len_star_2_0_3 () Int)
(declare-fun q_2_0_3 () Int)
(declare-fun len_2_0_4 () Int)
(declare-fun len_star_2_0_4 () Int)
(declare-fun q_2_0_4 () Int)
(declare-fun len_2_0_5 () Int)
(declare-fun len_star_2_0_5 () Int)
(declare-fun q_2_0_5 () Int)
(declare-fun len_2_6_7 () Int)
(declare-fun len_star_2_6_7 () Int)
(declare-fun q_2_6_7 () Int)
(declare-fun len_2_7_8 () Int)
(declare-fun len_star_2_7_8 () Int)
(declare-fun q_2_7_8 () Int)
(assert
 (>= label_0_0 0))
(assert
 (<= label_0_0 20))
(assert
 (>= label_0_1 0))
(assert
 (<= label_0_1 20))
(assert
 (>= label_0_2 0))
(assert
 (<= label_0_2 20))
(assert
 (>= label_0_3 0))
(assert
 (<= label_0_3 20))
(assert
 (>= label_0_4 0))
(assert
 (<= label_0_4 20))
(assert
 (>= label_0_5 0))
(assert
 (<= label_0_5 20))
(assert
 (>= label_0_6 0))
(assert
 (<= label_0_6 20))
(assert
 (>= label_0_7 0))
(assert
 (<= label_0_7 20))
(assert
 (>= label_0_8 0))
(assert
 (<= label_0_8 20))
(assert
 (>= label_1_0 0))
(assert
 (<= label_1_0 20))
(assert
 (>= label_1_1 0))
(assert
 (<= label_1_1 20))
(assert
 (>= label_1_2 0))
(assert
 (<= label_1_2 20))
(assert
 (>= label_1_3 0))
(assert
 (<= label_1_3 20))
(assert
 (>= label_1_4 0))
(assert
 (<= label_1_4 20))
(assert
 (>= label_1_5 0))
(assert
 (<= label_1_5 20))
(assert
 (>= label_1_6 0))
(assert
 (<= label_1_6 20))
(assert
 (>= label_1_7 0))
(assert
 (<= label_1_7 20))
(assert
 (>= label_1_8 0))
(assert
 (<= label_1_8 20))
(assert
 (>= label_2_0 0))
(assert
 (<= label_2_0 20))
(assert
 (>= label_2_1 0))
(assert
 (<= label_2_1 20))
(assert
 (>= label_2_2 0))
(assert
 (<= label_2_2 20))
(assert
 (>= label_2_3 0))
(assert
 (<= label_2_3 20))
(assert
 (>= label_2_4 0))
(assert
 (<= label_2_4 20))
(assert
 (>= label_2_5 0))
(assert
 (<= label_2_5 20))
(assert
 (>= label_2_6 0))
(assert
 (<= label_2_6 20))
(assert
 (>= label_2_7 0))
(assert
 (<= label_2_7 20))
(assert
 (>= label_2_8 0))
(assert
 (<= label_2_8 20))
(assert
 (let ((?x97 (- label_0_0 label_0_1)))
 (= len_0_0_1 (ite (> ?x97 0) ?x97 (- ?x97)))))
(assert
 (>= len_0_0_1 1))
(assert
 (<= len_0_0_1 3))
(assert
 (>= len_star_0_0_1 0))
(assert
 (< len_star_0_0_1 7))
(assert
 (= len_star_0_0_1 (- (+ label_0_0 label_0_1) (* 7 q_0_0_1))))
(assert
 (>= q_0_0_1 0))
(assert
 (let ((?x239 (- label_0_0 label_0_2)))
 (= len_0_0_2 (ite (> ?x239 0) ?x239 (- ?x239)))))
(assert
 (>= len_0_0_2 1))
(assert
 (<= len_0_0_2 3))
(assert
 (>= len_star_0_0_2 0))
(assert
 (< len_star_0_0_2 7))
(assert
 (= len_star_0_0_2 (- (+ label_0_0 label_0_2) (* 7 q_0_0_2))))
(assert
 (>= q_0_0_2 0))
(assert
 (let ((?x26 (- label_0_0 label_0_3)))
 (= len_0_0_3 (ite (> ?x26 0) ?x26 (- ?x26)))))
(assert
 (>= len_0_0_3 1))
(assert
 (<= len_0_0_3 3))
(assert
 (>= len_star_0_0_3 0))
(assert
 (< len_star_0_0_3 7))
(assert
 (= len_star_0_0_3 (- (+ label_0_0 label_0_3) (* 7 q_0_0_3))))
(assert
 (>= q_0_0_3 0))
(assert
 (let ((?x184 (- label_0_0 label_0_4)))
 (= len_0_0_4 (ite (> ?x184 0) ?x184 (- ?x184)))))
(assert
 (>= len_0_0_4 1))
(assert
 (<= len_0_0_4 3))
(assert
 (>= len_star_0_0_4 0))
(assert
 (< len_star_0_0_4 7))
(assert
 (= len_star_0_0_4 (- (+ label_0_0 label_0_4) (* 7 q_0_0_4))))
(assert
 (>= q_0_0_4 0))
(assert
 (let ((?x279 (- label_0_0 label_0_5)))
 (= len_0_0_5 (ite (> ?x279 0) ?x279 (- ?x279)))))
(assert
 (>= len_0_0_5 1))
(assert
 (<= len_0_0_5 3))
(assert
 (>= len_star_0_0_5 0))
(assert
 (< len_star_0_0_5 7))
(assert
 (= len_star_0_0_5 (- (+ label_0_0 label_0_5) (* 7 q_0_0_5))))
(assert
 (>= q_0_0_5 0))
(assert
 (let ((?x321 (- label_0_6 label_0_7)))
 (= len_0_6_7 (ite (> ?x321 0) ?x321 (- ?x321)))))
(assert
 (>= len_0_6_7 1))
(assert
 (<= len_0_6_7 3))
(assert
 (>= len_star_0_6_7 0))
(assert
 (< len_star_0_6_7 7))
(assert
 (= len_star_0_6_7 (- (+ label_0_6 label_0_7) (* 7 q_0_6_7))))
(assert
 (>= q_0_6_7 0))
(assert
 (let ((?x364 (- label_0_7 label_0_8)))
 (= len_0_7_8 (ite (> ?x364 0) ?x364 (- ?x364)))))
(assert
 (>= len_0_7_8 1))
(assert
 (<= len_0_7_8 3))
(assert
 (>= len_star_0_7_8 0))
(assert
 (< len_star_0_7_8 7))
(assert
 (= len_star_0_7_8 (- (+ label_0_7 label_0_8) (* 7 q_0_7_8))))
(assert
 (>= q_0_7_8 0))
(assert
 (let ((?x402 (- label_1_0 label_1_1)))
 (= len_1_0_1 (ite (> ?x402 0) ?x402 (- ?x402)))))
(assert
 (>= len_1_0_1 1))
(assert
 (<= len_1_0_1 3))
(assert
 (>= len_star_1_0_1 0))
(assert
 (< len_star_1_0_1 7))
(assert
 (= len_star_1_0_1 (- (+ label_1_0 label_1_1) (* 7 q_1_0_1))))
(assert
 (>= q_1_0_1 0))
(assert
 (let ((?x445 (- label_1_0 label_1_2)))
 (= len_1_0_2 (ite (> ?x445 0) ?x445 (- ?x445)))))
(assert
 (>= len_1_0_2 1))
(assert
 (<= len_1_0_2 3))
(assert
 (>= len_star_1_0_2 0))
(assert
 (< len_star_1_0_2 7))
(assert
 (= len_star_1_0_2 (- (+ label_1_0 label_1_2) (* 7 q_1_0_2))))
(assert
 (>= q_1_0_2 0))
(assert
 (let ((?x487 (- label_1_0 label_1_3)))
 (= len_1_0_3 (ite (> ?x487 0) ?x487 (- ?x487)))))
(assert
 (>= len_1_0_3 1))
(assert
 (<= len_1_0_3 3))
(assert
 (>= len_star_1_0_3 0))
(assert
 (< len_star_1_0_3 7))
(assert
 (= len_star_1_0_3 (- (+ label_1_0 label_1_3) (* 7 q_1_0_3))))
(assert
 (>= q_1_0_3 0))
(assert
 (let ((?x529 (- label_1_0 label_1_4)))
 (= len_1_0_4 (ite (> ?x529 0) ?x529 (- ?x529)))))
(assert
 (>= len_1_0_4 1))
(assert
 (<= len_1_0_4 3))
(assert
 (>= len_star_1_0_4 0))
(assert
 (< len_star_1_0_4 7))
(assert
 (= len_star_1_0_4 (- (+ label_1_0 label_1_4) (* 7 q_1_0_4))))
(assert
 (>= q_1_0_4 0))
(assert
 (let ((?x571 (- label_1_0 label_1_5)))
 (= len_1_0_5 (ite (> ?x571 0) ?x571 (- ?x571)))))
(assert
 (>= len_1_0_5 1))
(assert
 (<= len_1_0_5 3))
(assert
 (>= len_star_1_0_5 0))
(assert
 (< len_star_1_0_5 7))
(assert
 (= len_star_1_0_5 (- (+ label_1_0 label_1_5) (* 7 q_1_0_5))))
(assert
 (>= q_1_0_5 0))
(assert
 (let ((?x613 (- label_1_6 label_1_7)))
 (= len_1_6_7 (ite (> ?x613 0) ?x613 (- ?x613)))))
(assert
 (>= len_1_6_7 1))
(assert
 (<= len_1_6_7 3))
(assert
 (>= len_star_1_6_7 0))
(assert
 (< len_star_1_6_7 7))
(assert
 (= len_star_1_6_7 (- (+ label_1_6 label_1_7) (* 7 q_1_6_7))))
(assert
 (>= q_1_6_7 0))
(assert
 (let ((?x656 (- label_1_7 label_1_8)))
 (= len_1_7_8 (ite (> ?x656 0) ?x656 (- ?x656)))))
(assert
 (>= len_1_7_8 1))
(assert
 (<= len_1_7_8 3))
(assert
 (>= len_star_1_7_8 0))
(assert
 (< len_star_1_7_8 7))
(assert
 (= len_star_1_7_8 (- (+ label_1_7 label_1_8) (* 7 q_1_7_8))))
(assert
 (>= q_1_7_8 0))
(assert
 (let ((?x698 (- label_2_0 label_2_1)))
 (= len_2_0_1 (ite (> ?x698 0) ?x698 (- ?x698)))))
(assert
 (>= len_2_0_1 1))
(assert
 (<= len_2_0_1 3))
(assert
 (>= len_star_2_0_1 0))
(assert
 (< len_star_2_0_1 7))
(assert
 (= len_star_2_0_1 (- (+ label_2_0 label_2_1) (* 7 q_2_0_1))))
(assert
 (>= q_2_0_1 0))
(assert
 (let ((?x741 (- label_2_0 label_2_2)))
 (= len_2_0_2 (ite (> ?x741 0) ?x741 (- ?x741)))))
(assert
 (>= len_2_0_2 1))
(assert
 (<= len_2_0_2 3))
(assert
 (>= len_star_2_0_2 0))
(assert
 (< len_star_2_0_2 7))
(assert
 (= len_star_2_0_2 (- (+ label_2_0 label_2_2) (* 7 q_2_0_2))))
(assert
 (>= q_2_0_2 0))
(assert
 (let ((?x783 (- label_2_0 label_2_3)))
 (= len_2_0_3 (ite (> ?x783 0) ?x783 (- ?x783)))))
(assert
 (>= len_2_0_3 1))
(assert
 (<= len_2_0_3 3))
(assert
 (>= len_star_2_0_3 0))
(assert
 (< len_star_2_0_3 7))
(assert
 (= len_star_2_0_3 (- (+ label_2_0 label_2_3) (* 7 q_2_0_3))))
(assert
 (>= q_2_0_3 0))
(assert
 (let ((?x825 (- label_2_0 label_2_4)))
 (= len_2_0_4 (ite (> ?x825 0) ?x825 (- ?x825)))))
(assert
 (>= len_2_0_4 1))
(assert
 (<= len_2_0_4 3))
(assert
 (>= len_star_2_0_4 0))
(assert
 (< len_star_2_0_4 7))
(assert
 (= len_star_2_0_4 (- (+ label_2_0 label_2_4) (* 7 q_2_0_4))))
(assert
 (>= q_2_0_4 0))
(assert
 (let ((?x867 (- label_2_0 label_2_5)))
 (= len_2_0_5 (ite (> ?x867 0) ?x867 (- ?x867)))))
(assert
 (>= len_2_0_5 1))
(assert
 (<= len_2_0_5 3))
(assert
 (>= len_star_2_0_5 0))
(assert
 (< len_star_2_0_5 7))
(assert
 (= len_star_2_0_5 (- (+ label_2_0 label_2_5) (* 7 q_2_0_5))))
(assert
 (>= q_2_0_5 0))
(assert
 (let ((?x905 (- label_2_6 label_2_7)))
 (= len_2_6_7 (ite (> ?x905 0) ?x905 (- ?x905)))))
(assert
 (>= len_2_6_7 1))
(assert
 (<= len_2_6_7 3))
(assert
 (>= len_star_2_6_7 0))
(assert
 (< len_star_2_6_7 7))
(assert
 (= len_star_2_6_7 (- (+ label_2_6 label_2_7) (* 7 q_2_6_7))))
(assert
 (>= q_2_6_7 0))
(assert
 (let ((?x948 (- label_2_7 label_2_8)))
 (= len_2_7_8 (ite (> ?x948 0) ?x948 (- ?x948)))))
(assert
 (>= len_2_7_8 1))
(assert
 (<= len_2_7_8 3))
(assert
 (>= len_star_2_7_8 0))
(assert
 (< len_star_2_7_8 7))
(assert
 (= len_star_2_7_8 (- (+ label_2_7 label_2_8) (* 7 q_2_7_8))))
(assert
 (>= q_2_7_8 0))
(check-sat)
